int NumberPatients = 146
int NumberOfRooms = 15
int NumberSurgeons = 21
int NumberOfDays = 6
Duration = [126,97,272,31,88,119,159,98,53,78,59,119,66,103,32,32,101,66,59,201,66,119,66,98,98,50,66,119,72,132,252,44,30,67,210,46,47,47,166,58,32,119,98,119,47,166,80,29,93,140,103,104,103,105,31,47,32,105,47,60,103,98,98,30,72,93,105,30,47,98,30,72,53,263,256,105,44,47,78,53,157,267,97,166,53,64,98,47,90,93,39,46,100,75,105,47,103,39,32,32,238,98,60,32,66,58,47,66,98,85,32,58,58,68,93,78,79,32,85,59,65,32,227,105,210,104,32,46,98,210,103,32,47,72,210,132,166,98,117,60,114,66,31,201,130,50];
Priority = [0,0,0,0,0,0,0,0,0,0,0,0,0,0,0,0,0,0,0,0,0,0,0,0,0,0,0,0,0,0,0,0,0,0,0,0,0,0,0,0,0,0,1,0,0,0,0,0,0,0,0,0,0,0,0,1,0,0,0,0,0,1,0,0,0,0,0,0,0,0,0,0,0,0,0,0,0,0,0,0,0,0,0,1,0,0,0,0,0,0,0,0,0,0,0,0,0,0,0,0,0,0,0,0,0,0,0,0,0,0,0,1,0,0,0,0,1,0,0,0,0,0,0,0,0,0,0,0,0,0,0,0,0,0,0,0,0,0,0,0,0,0,0,0,0,0];
Waiting = [63,32,102,32,46,291,21,46,56,221,46,51,221,114,52,121,259,494,548,204,38,430,64,135,324,317,170,319,114,59,56,43,396,64,60,36,39,23,95,221,36,80,80,141,50,354,93,487,155,277,150,205,57,141,107,148,106,119,35,50,253,78,57,315,155,63,80,148,79,49,242,310,59,21,150,155,253,120,22,67,261,32,116,23,37,95,155,79,23,155,36,106,207,24,172,284,80,165,164,338,56,191,23,53,387,184,24,30,67,199,37,78,107,35,396,177,120,45,205,422,141,169,56,150,23,67,410,44,115,38,31,37,389,556,204,156,50,120,24,32,51,158,37,116,92,102];
Surgeon = [1,9,1,5,5,7,1,8,3,3,4,2,3,2,6,2,4,5,6,9,8,1,13,12,2,4,6,1,1,2,3,3,4,2,3,10,3,3,8,5,5,1,4,5,6,2,6,1,8,3,13,3,8,1,4,2,1,1,10,2,6,1,3,4,6,6,2,5,10,2,1,1,6,1,13,5,5,3,5,2,6,2,6,5,4,1,1,1,3,4,5,7,1,5,7,2,4,1,3,2,2,4,2,8,5,15,7,6,12,4,6,8,3,1,5,4,1,7,1,8,3,4,4,4,1,5,5,5,1,1,1,5,2,3,3,1,3,2,3,9,3,8,5,7,6,1];
BlockAvailability = [[[0,0],[1,0],[0,1],[0,0],[0,1],[1,0],[0,0],[0,0],[0,0],[0,0],[0,0],[1,0],[0,1],[0,0],[1,0]],[[1,1],[0,1],[0,0],[1,1],[0,0],[1,0],[0,0],[0,1],[0,1],[0,1],[0,0],[0,0],[0,0],[0,1],[0,0]],[[0,0],[0,0],[0,0],[0,1],[0,0],[1,0],[0,0],[0,0],[0,1],[0,1],[0,0],[0,0],[0,1],[0,0],[0,1]],[[0,0],[0,0],[0,1],[0,0],[0,0],[0,0],[0,0],[0,1],[0,0],[0,0],[0,0],[0,1],[0,0],[0,0],[0,0]],[[0,0],[0,0],[0,1],[0,0],[0,0],[0,0],[0,0],[1,1],[1,1],[1,0],[0,0],[0,0],[0,0],[0,1],[0,1]],[[0,1],[0,0],[1,0],[0,0],[0,0],[0,0],[0,0],[1,1],[0,0],[0,0],[0,0],[0,0],[0,0],[1,0],[0,0]]];
SurgeonAvailability = [[[1,1],[1,1],[1,1],[1,0],[0,1],[1,1]],[[0,1],[1,1],[1,1],[1,1],[0,1],[0,1]],[[0,1],[1,1],[1,1],[0,1],[1,0],[1,0]],[[1,1],[0,0],[1,0],[1,1],[1,0],[1,0]],[[1,1],[1,0],[1,1],[0,0],[1,1],[1,1]],[[0,1],[1,0],[1,1],[1,0],[1,1],[1,1]],[[0,1],[1,1],[1,1],[1,0],[1,1],[1,1]],[[1,1],[1,0],[1,1],[1,0],[1,1],[1,1]],[[0,0],[1,0],[1,0],[1,0],[1,0],[1,0]],[[1,1],[1,0],[1,1],[0,1],[0,1],[1,1]],[[1,1],[1,1],[1,1],[0,1],[1,1],[0,1]],[[1,1],[1,0],[0,1],[0,1],[0,1],[1,1]],[[1,1],[1,1],[1,1],[0,1],[1,1],[1,1]],[[1,1],[0,0],[0,0],[0,1],[1,0],[1,1]],[[1,1],[0,1],[1,1],[1,1],[1,0],[1,0]],[[1,0],[1,1],[1,1],[1,0],[0,1],[1,0]],[[1,1],[0,0],[1,1],[1,1],[0,0],[1,1]],[[1,1],[1,0],[1,0],[1,1],[1,1],[1,1]],[[1,1],[1,1],[1,1],[1,1],[1,0],[1,1]],[[1,1],[1,1],[1,0],[1,0],[1,1],[1,1]],[[1,1],[1,1],[1,0],[0,1],[0,0],[1,0]]];
